(set-info :smt-lib-version 2.6)
(set-logic QF_UFLRA)
(set-info :source |
MathSat group

|)
(set-info :category "random")
(set-info :status unsat)
(declare-fun x0 () Real)
(declare-fun x1 () Real)
(declare-fun x2 () Real)
(declare-fun x3 () Real)
(declare-fun x4 () Real)
(declare-fun x5 () Real)
(declare-fun x6 () Real)
(declare-fun x7 () Real)
(declare-fun x8 () Real)
(declare-fun x9 () Real)
(declare-fun x10 () Real)
(declare-fun x11 () Real)
(declare-fun x12 () Real)
(declare-fun x13 () Real)
(declare-fun x14 () Real)
(declare-fun x15 () Real)
(declare-fun x16 () Real)
(declare-fun x17 () Real)
(declare-fun x18 () Real)
(declare-fun x19 () Real)
(declare-fun x20 () Real)
(declare-fun x21 () Real)
(declare-fun x22 () Real)
(declare-fun x23 () Real)
(declare-fun x24 () Real)
(declare-fun x25 () Real)
(declare-fun x26 () Real)
(declare-fun x27 () Real)
(declare-fun x28 () Real)
(declare-fun x29 () Real)
(declare-fun f0_1 (Real) Real)
(declare-fun f0_2 (Real Real) Real)
(declare-fun f0_3 (Real Real Real) Real)
(declare-fun f0_4 (Real Real Real Real) Real)
(declare-fun P0 () Bool)
(declare-fun P1 () Bool)
(declare-fun P2 () Bool)
(declare-fun P3 () Bool)
(declare-fun P4 () Bool)
(declare-fun P5 () Bool)
(declare-fun P6 () Bool)
(declare-fun P7 () Bool)
(declare-fun P8 () Bool)
(declare-fun P9 () Bool)
(declare-fun P10 () Bool)
(declare-fun P11 () Bool)
(declare-fun P12 () Bool)
(declare-fun P13 () Bool)
(declare-fun P14 () Bool)
(declare-fun P15 () Bool)
(declare-fun P16 () Bool)
(declare-fun P17 () Bool)
(declare-fun P18 () Bool)
(declare-fun P19 () Bool)
(declare-fun P20 () Bool)
(declare-fun P21 () Bool)
(declare-fun P22 () Bool)
(declare-fun P23 () Bool)
(declare-fun P24 () Bool)
(declare-fun P25 () Bool)
(declare-fun P26 () Bool)
(declare-fun P27 () Bool)
(declare-fun P28 () Bool)
(declare-fun P29 () Bool)
(assert (let ((?v_7 (= (- (+ (* 13 x9) (* 18 x2)) (* 7 x12)) 7)) (?v_43 (distinct (- (+ (* 29 x22) (* 8 x24)) (* 36 x9)) 0)) (?v_9 (* 29 x5)) (?v_3 (* 37 x6))) (let ((?v_26 (<= (- (+ (* 18 x24) (* 2 x23)) ?v_3) 42)) (?v_44 (<= (+ (- (* 38 x11) (* 38 x12)) (* 28 x28)) 39)) (?v_82 (< (- (- (* 31 x16) (* 30 x9)) (* 39 x12)) 4)) (?v_120 (< (- (- (* 16 x7) (* 11 x15)) (* 26 x28)) 10)) (?v_118 (distinct x20 x4)) (?v_70 (distinct x8 (f0_2 x5 x13))) (?v_137 (distinct (f0_1 x28) (f0_1 x14))) (?v_94 (distinct (f0_1 x0) x4)) (?v_0 (f0_1 x29))) (let ((?v_14 (= (f0_2 x27 x9) ?v_0)) (?v_35 (= (f0_2 x8 x18) (f0_2 x6 x15))) (?v_18 (= x29 (f0_1 x10))) (?v_69 (= x23 x10)) (?v_83 (= x26 x1)) (?v_104 (= (f0_1 x6) x2)) (?v_37 (distinct x15 x4)) (?v_45 (= x10 x29)) (?v_68 (= x14 (f0_2 x25 x8))) (?v_107 (= (f0_2 x29 x17) ?v_0)) (?v_97 (f0_1 x11))) (let ((?v_122 (= ?v_97 x5)) (?v_16 (distinct (f0_1 x26) x23)) (?v_20 (distinct (f0_2 x19 x3) x6)) (?v_39 (= (f0_2 x5 x18) (f0_1 x2))) (?v_47 (f0_1 x15))) (let ((?v_116 (distinct ?v_47 ?v_97)) (?v_61 (= (f0_2 x8 x22) (f0_1 x8))) (?v_62 (= ?v_0 (f0_2 x19 x8))) (?v_90 (= (f0_2 x17 x4) (f0_2 x20 x18))) (?v_10 (= (f0_2 x21 x19) (f0_1 x13))) (?v_56 (distinct x21 x29)) (?v_85 (distinct (f0_1 x24) x18)) (?v_55 (distinct (f0_2 x24 x24) (f0_2 x20 x29))) (?v_15 (= x16 (f0_1 x23))) (?v_51 (= ?v_47 x20)) (?v_2 (= (f0_1 x17) (f0_2 x0 x23))) (?v_49 (= (f0_2 x28 x20) (f0_2 x4 x16))) (?v_28 (not P29))) (let ((?v_80 (not ?v_2)) (?v_1 (not P26)) (?v_24 (not ?v_35)) (?v_36 (not P0)) (?v_144 (not P1)) (?v_12 (not P27)) (?v_30 (not ?v_26)) (?v_73 (not ?v_14)) (?v_99 (not ?v_7)) (?v_109 (not ?v_20)) (?v_59 (not ?v_61)) (?v_34 (not ?v_16)) (?v_132 (not P13)) (?v_8 (not P19)) (?v_11 (not P23)) (?v_46 (not P10)) (?v_136 (not ?v_51)) (?v_119 (not P17)) (?v_96 (not ?v_44)) (?v_21 (not P3)) (?v_135 (not P21)) (?v_25 (not ?v_45)) (?v_65 (not P22)) (?v_40 (not ?v_104)) (?v_112 (not P5)) (?v_93 (not ?v_18)) (?v_60 (not P24)) (?v_50 (not P15)) (?v_79 (not ?v_37)) (?v_121 (not ?v_39)) (?v_146 (not P11)) (?v_53 (not ?v_15)) (?v_52 (not P16)) (?v_100 (not P4)) (?v_71 (not P18)) (?v_91 (not P6)) (?v_106 (not ?v_55)) (?v_95 (not P14)) (?v_111 (not P28)) (?v_86 (not ?v_56)) (?v_63 (not ?v_69)) (?v_133 (not ?v_90)) (?v_143 (not P7)) (?v_75 (not ?v_137)) (?v_113 (not ?v_43)) (?v_151 (not ?v_83)) (?v_87 (not P12)) (?v_115 (not ?v_120)) (?v_124 (not ?v_82)) (?v_150 (not ?v_10)) (?v_105 (not ?v_94)) (?v_103 (not ?v_49)) (?v_148 (not P25)) (?v_138 (not P9)) (?v_127 (not ?v_107)) (?v_140 (not ?v_116)) (?v_129 (not ?v_118)) (?v_126 (not P2)) (?v_123 (not ?v_122)) (?v_131 (not ?v_70)) (?v_149 (not ?v_62)) (?v_152 (not P8)) (?v_145 (not ?v_68)) (?v_153 (not P20)) (?v_155 (not ?v_85)) (?v_6 (= (+ (* 31 x10) (* 37 x23) x29) 17))) (let ((?v_42 (not ?v_6)) (?v_77 (< (+ (* 38 x3) (* 33 x21) (* 20 x22)) 5))) (let ((?v_139 (not ?v_77)) (?v_5 (< (+ (* 40 x11) (* 27 x15) (* 15 x9)) (- 3))) (?v_31 (<= (+ (* (- 21) x28) (* 18 x28) (* 11 x6)) (- 39))) (?v_72 (distinct (- (+ ?v_3 (* 30 x7)) (* 35 x1)) (- 14))) (?v_58 (< (- (- (* (- 2) x13) (* 40 x10)) ?v_9) 40))) (let ((?v_38 (not ?v_58)) (?v_4 (< (+ (- (* 16 x19) (* 40 x20)) (* 26 x5)) (- 17))) (?v_23 (= (+ (* (- 26) x21) (* 2 x15) (* 23 x12)) 17)) (?v_32 (not ?v_5)) (?v_84 (= (- (- (* 29 x8) (* 37 x8)) (* 34 x13)) (- 42)))) (let ((?v_33 (not ?v_84)) (?v_13 (<= (- (- (* (- 32) x28) (* 35 x12)) (* 22 x3)) (- 24)))) (let ((?v_117 (not ?v_13)) (?v_27 (distinct (+ (- (* (- 10) x20) (* 15 x26)) (* 4 x3)) (- 2))) (?v_78 (<= (- (- (* (- 9) x20) ?v_9) (* 34 x20)) 28)) (?v_29 (< (- (- (* (- 3) x9) (* 12 x11)) (* 17 x7)) 24))) (let ((?v_17 (not ?v_29)) (?v_19 (< (- (- (* (- 13) x20) (* 20 x23)) (* 28 x3)) (- 27))) (?v_67 (< (+ (- (* (- 13) x14) (* 20 x3)) (* 3 x14)) 10)) (?v_22 (= (+ (- (* (- 17) x2) 0) (* 23 x29)) 8))) (let ((?v_110 (not ?v_19)) (?v_66 (not ?v_4)) (?v_41 (< (- (+ (* (- 39) x3) (* 13 x12)) (* 9 x26)) 27)) (?v_88 (not ?v_22)) (?v_48 (< (- (+ (* (- 15) x7) (* 32 x29)) (* 10 x26)) 40)) (?v_54 (distinct (+ (* (- 33) x8) x13 (* 24 x1)) (- 23))) (?v_57 (not ?v_27)) (?v_89 (< (- (- (* (- 39) x24) (* 40 x7)) (* 16 x22)) (- 6)))) (let ((?v_74 (not ?v_89)) (?v_64 (not ?v_31)) (?v_128 (not ?v_23)) (?v_98 (<= (+ (- (* 41 x2) (* 11 x28)) (* 18 x1)) (- 9))) (?v_92 (< (- (- (* 3 x3) (* 33 x18)) (* 9 x7)) (- 18))) (?v_134 (not ?v_41)) (?v_76 (not ?v_48)) (?v_101 (not ?v_54)) (?v_125 (<= (- (- (* 9 x9) (* 21 x28)) (* 30 x12)) (- 2))) (?v_81 (<= (+ (* 39 x17) (* 23 x22) (* 16 x25)) (- 21))) (?v_154 (or ?v_51 ?v_78))) (let ((?v_102 (not ?v_81)) (?v_108 (not ?v_92)) (?v_114 (not ?v_78)) (?v_130 (not ?v_67)) (?v_141 (not ?v_98))) (let ((?v_156 (or ?v_102 ?v_37)) (?v_142 (not ?v_125)) (?v_147 (not ?v_72))) (and (and (and (and (and (and (and (and (and (and (and (and (and (and (and (and (and (and (and (and (and (and (and (and (and (and (and (and (and (and (and (and (and (and (and (and (and (and (and (and (and (and (and (and (and (and (and (and (and (and (and (and (and (and (and (and (and (and (and (and (and (and (and (and (and (and (and (and (and (and (and (and (and (and (and (and (and (and (and (and (and (and (and (and (and (and (and (and (and (and (and (and (and (and (and (and (and (and (and (and (and (and (and (and (and (and (and (and (and (and (and (and (and (and (and (and (and (and (and (and (and (and (and (and (and (and (and (and (and (and (and (and (and (and (and (and (and (and (and (and (and (and (and (and (and (and (and (and (and (and (and (and (and (and (and (and (and (and (and (and (and (and (and (and (and (and (and (and (and (and (and (and (and (and (and (and (and (and (and (and (and (and (and (and (and (and (and (and (and (and (and (and (and (and (and (and (and (and (and (and (and (and (and (and (and (and (and (and (and (and (and (and (and (and (and (and (and (and (and (and (and (and (and (and (and (and (and (and (and (and (and (and (and (and (and (and (and (and (and (and (and (and (and (and (and (and (and (and (and (and (and (and (and (and (and (and (and (and (and (and (and (and (and (and (and (and (and (and (and (and (and (and (and (and (and (and (and (and (and (and (and (and (and (and (and (and (and (and (and (and (and (and (and (and (and (and (and (and (and (and (and (and (and (and (and (and (and (and (and (and (and (and (and (and (and (and (and (and (and (and (and (and (and (and (and (and (and (and (and (and (and (and (and (and (and (and (and (and (and (and (and (and (and (and (and (and (and (and (and (and (and (and (and (and (and (and (and (and (and (and (and (and (and (and (and (and (and (and (and (and (and (and (and (and (and (and (and (and (and (and (and (and (and (and (and (and (and (and (and (and (and (and (and (and (and (and (and (and (and (and (and (and (and (and (and (and (and (and (and (and (and (and (and (and (and (and (and (and (and (and (and (and (and (and (and (and (and (and (and (and (and (and (and (and (and (and (and (and (and (and (and (and (and (and (and (and (and (and (and (or (or ?v_28 ?v_80) ?v_1) (or (or ?v_24 ?v_55) P15)) (or (or ?v_36 ?v_62) ?v_6)) (or (or ?v_144 P24) ?v_12)) (or (or P4 ?v_30) ?v_73)) (or (or ?v_5 ?v_31) ?v_1)) (or (or ?v_99 P26) ?v_109)) (or (or ?v_2 ?v_37) P18)) (or (or ?v_72 ?v_38) P12)) (or (or ?v_4 ?v_94) ?v_23)) (or (or ?v_59 ?v_34) P6)) (or (or ?v_10 P8) ?v_4)) (or (or P22 ?v_32) ?v_6)) (or (or ?v_70 ?v_33) ?v_68)) (or (or ?v_132 P2) ?v_49)) (or (or ?v_42 ?v_117) P4)) (or (or ?v_8 ?v_7) ?v_27)) (or (or ?v_11 ?v_8) ?v_78)) (or (or ?v_17 ?v_46) P20)) (or (or ?v_19 ?v_67) P25)) (or (or ?v_10 ?v_136) ?v_119)) (or (or ?v_96 ?v_11) ?v_12)) (or (or ?v_15 ?v_13) ?v_21)) (or (or ?v_18 ?v_14) ?v_11)) (or (or ?v_15 ?v_12) P1)) (or (or ?v_43 ?v_16) ?v_82)) (or (or P2 ?v_135) ?v_17)) (or (or ?v_39 ?v_22) P27)) (or (or ?v_25 P15) ?v_18)) (or (or P19 ?v_110) ?v_12)) (or (or ?v_20 ?v_66) ?v_21)) (or (or ?v_41 ?v_65) ?v_88)) (or (or ?v_40 ?v_48) ?v_23)) (or (or ?v_16 ?v_17) ?v_24)) (or (or P25 ?v_25) ?v_26)) (or (or ?v_27 P9) ?v_28)) (or (or ?v_112 ?v_15) ?v_54)) (or (or ?v_7 ?v_29) ?v_57)) (or (or P23 ?v_30) P16)) (or (or ?v_93 P20) ?v_60)) (or (or ?v_14 P2) ?v_31)) (or (or ?v_50 P17) P28)) (or (or ?v_32 ?v_33) ?v_14)) (or (or ?v_74 P12) ?v_34)) (or (or ?v_35 P2) ?v_11)) (or (or ?v_64 P17) ?v_36)) (or (or ?v_26 ?v_79) ?v_38)) (or (or ?v_121 ?v_39) ?v_40)) (or (or ?v_41 P1) ?v_146)) (or (or ?v_42 P24) ?v_128)) (or (or ?v_43 ?v_44) P23)) (or (or ?v_39 P17) ?v_30)) (or (or ?v_98 P16) ?v_35)) (or (or ?v_53 ?v_52) ?v_45)) (or (or ?v_46 ?v_92) ?v_17)) (or (or ?v_116 ?v_10) ?v_23)) (or (or P10 ?v_134) ?v_100)) (or (or ?v_76 ?v_25) ?v_49)) (or (or ?v_71 ?v_50) ?v_51)) (or (or ?v_52 ?v_16) ?v_42)) (or (or P22 ?v_49) ?v_53)) (or (or ?v_139 ?v_37) ?v_85)) (or (or P10 ?v_16) ?v_91)) (or (or ?v_56 ?v_101) ?v_106)) (or (or ?v_95 ?v_111) ?v_54)) (or (or ?v_86 ?v_57) ?v_63)) (or (or ?v_6 ?v_58) ?v_59)) (or (or ?v_133 ?v_60) ?v_61)) (or (or ?v_62 ?v_19) ?v_27)) (or (or ?v_39 ?v_63) ?v_143)) (or (or P10 ?v_44) ?v_43)) (or (or ?v_40 ?v_51) ?v_24)) (or (or ?v_64 ?v_15) P3)) (or (or ?v_65 ?v_6) ?v_75)) (or (or ?v_113 ?v_151) ?v_65)) (or (or ?v_66 ?v_118) ?v_67)) (or (or ?v_45 ?v_26) ?v_68)) (or (or P26 ?v_69) ?v_16)) (or (or P10 ?v_87) P26)) (or (or ?v_70 ?v_45) ?v_125)) (or (or ?v_71 ?v_72) ?v_31)) (or (or P6 ?v_56) P5)) (or (or ?v_71 ?v_73) ?v_69)) (or (or ?v_15 ?v_45) ?v_74)) (or (or ?v_75 ?v_60) ?v_76)) (or (or ?v_77 ?v_34) P28)) (or (or ?v_66 ?v_37) P25)) (or (or ?v_4 ?v_4) ?v_81)) (or ?v_154 ?v_79)) (or (or ?v_80 ?v_102) ?v_16)) (or (or ?v_82 ?v_24) ?v_83)) (or (or ?v_115 P20) ?v_84)) (or (or ?v_68 ?v_64) P18)) (or (or P21 P14) ?v_85)) (or (or P19 ?v_124) ?v_86)) (or (or P9 ?v_7) ?v_87)) (or (or ?v_62 ?v_25) ?v_6)) (or (or ?v_54 ?v_88) ?v_5)) (or (or ?v_18 ?v_89) P18)) (or (or ?v_90 ?v_90) ?v_85)) (or (or ?v_91 ?v_73) ?v_4)) (or (or ?v_108 ?v_71) ?v_150)) (or (or ?v_44 ?v_10) P9)) (or (or ?v_93 ?v_8) ?v_38)) (or (or ?v_94 ?v_95) ?v_107)) (or (or ?v_27 ?v_96) P20)) (or (or ?v_37 ?v_122) ?v_65)) (or (or ?v_75 ?v_105) ?v_98)) (or (or P8 ?v_99) ?v_49)) (or (or ?v_74 ?v_27) ?v_103)) (or (or ?v_100 ?v_60) ?v_1)) (or (or P18 ?v_101) P1)) (or (or P19 P12) P25)) (or (or ?v_148 ?v_60) ?v_12)) (or (or ?v_29 ?v_102) ?v_40)) (or (or ?v_21 P10) ?v_96)) (or (or ?v_7 P12) ?v_16)) (or (or ?v_103 ?v_31) ?v_73)) (or (or ?v_6 P29) P22)) (or (or ?v_104 ?v_105) ?v_138)) (or (or ?v_106 ?v_17) P28)) (or (or ?v_107 ?v_34) ?v_74)) (or (or ?v_108 ?v_44) ?v_6)) (or (or ?v_13 ?v_41) P20)) (or (or ?v_19 ?v_109) ?v_60)) (or (or ?v_114 ?v_110) ?v_51)) (or (or ?v_111 P8) ?v_108)) (or (or P15 ?v_70) ?v_82)) (or (or P16 ?v_84) ?v_112)) (or (or P16 ?v_22) ?v_51)) (or (or ?v_130 ?v_60) ?v_112)) (or (or ?v_89 ?v_12) ?v_28)) (or (or ?v_22 ?v_73) ?v_46)) (or (or ?v_7 ?v_24) ?v_1)) (or (or ?v_15 ?v_42) ?v_11)) (or (or ?v_48 ?v_141) ?v_74)) (or (or P12 ?v_1) ?v_38)) (or (or ?v_113 ?v_113) ?v_114)) (or (or ?v_63 ?v_83) ?v_127)) (or (or ?v_115 ?v_2) ?v_69)) (or (or ?v_140 ?v_113) ?v_117)) (or (or ?v_17 ?v_111) ?v_102)) (or (or ?v_23 ?v_57) ?v_29)) (or (or ?v_87 ?v_85) ?v_118)) (or (or ?v_29 ?v_72) ?v_20)) (or (or ?v_96 ?v_41) ?v_62)) (or (or ?v_61 ?v_58) ?v_75)) (or (or ?v_107 ?v_95) ?v_44)) (or (or P12 ?v_55) ?v_58)) (or (or ?v_89 P27) ?v_84)) (or (or ?v_116 ?v_129) ?v_1)) (or (or ?v_2 ?v_103) P19)) (or (or ?v_55 ?v_90) ?v_17)) (or (or ?v_6 P7) ?v_19)) (or (or P12 ?v_17) ?v_54)) (or (or ?v_118 ?v_78) ?v_119)) (or (or ?v_126 ?v_57) ?v_42)) (or (or ?v_87 ?v_116) ?v_19)) (or (or ?v_19 ?v_84) ?v_55)) (or (or ?v_101 ?v_40) ?v_63)) (or (or ?v_88 ?v_33) ?v_120)) (or (or ?v_110 ?v_98) ?v_96)) (or (or ?v_11 ?v_115) ?v_119)) (or (or ?v_60 ?v_110) P2)) (or (or ?v_121 ?v_64) ?v_54)) (or (or P21 ?v_81) ?v_123)) (or (or ?v_123 ?v_92) ?v_124)) (or (or ?v_67 ?v_121) P1)) (or ?v_156 ?v_131)) (or (or P9 ?v_74) ?v_123)) (or (or ?v_15 ?v_17) ?v_85)) (or (or ?v_108 ?v_118) P5)) (or (or ?v_28 ?v_103) ?v_54)) (or (or ?v_142 ?v_126) ?v_58)) (or (or ?v_127 ?v_20) ?v_116)) (or (or ?v_107 ?v_69) ?v_89)) (or (or ?v_63 ?v_68) ?v_112)) (or (or ?v_115 ?v_68) P2)) (or (or ?v_62 ?v_69) P26)) (or (or ?v_81 ?v_73) ?v_128)) (or (or ?v_125 ?v_37) P0)) (or (or ?v_122 ?v_56) ?v_16)) (or (or ?v_7 ?v_20) ?v_57)) (or (or ?v_129 ?v_129) ?v_95)) (or (or ?v_130 ?v_8) ?v_69)) (or (or ?v_10 ?v_131) ?v_132)) (or (or ?v_70 P21) P0)) (or (or ?v_87 ?v_10) P10)) (or (or ?v_78 ?v_27) ?v_129)) (or (or ?v_114 ?v_28) ?v_109)) (or (or ?v_123 ?v_117) ?v_42)) (or (or ?v_96 ?v_83) ?v_121)) (or (or ?v_35 ?v_53) ?v_60)) (or (or ?v_107 ?v_25) ?v_4)) (or (or ?v_56 P18) ?v_83)) (or (or ?v_133 ?v_133) ?v_117)) (or (or ?v_41 ?v_100) ?v_101)) (or (or ?v_134 ?v_135) ?v_12)) (or (or ?v_136 ?v_43) P27)) (or (or ?v_76 P25) ?v_49)) (or (or ?v_7 P9) ?v_105)) (or (or ?v_122 ?v_13) ?v_16)) (or (or ?v_56 ?v_109) ?v_58)) (or (or ?v_50 ?v_108) P25)) (or (or P16 ?v_60) ?v_111)) (or (or ?v_4 ?v_75) ?v_81)) (or (or ?v_75 ?v_13) ?v_90)) (or (or ?v_118 P19) ?v_91)) (or (or P20 P17) ?v_46)) (or (or ?v_137 ?v_127) ?v_135)) (or (or ?v_43 ?v_102) ?v_93)) (or (or ?v_138 ?v_119) ?v_21)) (or (or P21 ?v_29) ?v_80)) (or (or ?v_136 ?v_68) ?v_61)) (or (or ?v_50 ?v_1) ?v_14)) (or (or ?v_136 ?v_15) ?v_13)) (or (or ?v_22 P13) ?v_103)) (or (or P29 ?v_69) ?v_26)) (or (or ?v_21 ?v_93) ?v_2)) (or (or P1 ?v_57) ?v_49)) (or (or ?v_58 ?v_99) ?v_129)) (or (or ?v_136 ?v_85) ?v_113)) (or (or ?v_61 P12) P24)) (or (or ?v_73 ?v_15) P14)) (or (or ?v_57 P2) P8)) (or (or ?v_1 ?v_136) ?v_26)) (or (or ?v_135 ?v_135) ?v_139)) (or (or ?v_73 ?v_40) ?v_19)) (or (or ?v_35 ?v_2) P20)) (or (or P15 ?v_42) P26)) (or (or ?v_117 ?v_43) ?v_55)) (or (or ?v_1 ?v_55) ?v_63)) (or (or ?v_87 ?v_53) ?v_64)) (or (or ?v_110 ?v_90) ?v_120)) (or (or ?v_81 ?v_7) ?v_1)) (or (or P6 ?v_29) ?v_115)) (or (or ?v_24 ?v_140) ?v_141)) (or (or ?v_42 ?v_112) ?v_44)) (or (or ?v_101 ?v_117) ?v_129)) (or (or ?v_83 ?v_149) ?v_117)) (or (or ?v_23 ?v_34) ?v_28)) (or (or ?v_52 ?v_116) ?v_35)) (or (or ?v_75 P22) ?v_27)) (or (or ?v_92 ?v_105) ?v_102)) (or (or ?v_35 ?v_113) ?v_51)) (or (or ?v_22 ?v_135) ?v_131)) (or (or ?v_142 ?v_108) ?v_132)) (or (or P12 ?v_31) ?v_152)) (or (or P22 ?v_68) ?v_126)) (or (or ?v_18 ?v_38) P11)) (or (or ?v_129 ?v_121) ?v_20)) (or (or ?v_123 ?v_121) ?v_143)) (or (or P26 ?v_131) ?v_85)) (or (or ?v_35 P26) ?v_6)) (or (or ?v_114 ?v_83) P16)) (or (or ?v_96 ?v_16) ?v_93)) (or (or ?v_145 ?v_89) ?v_144)) (or (or P14 ?v_52) ?v_115)) (or (or ?v_127 ?v_60) P28)) (or (or ?v_40 ?v_19) ?v_129)) (or (or ?v_136 ?v_147) ?v_133)) (or (or ?v_14 ?v_90) ?v_50)) (or (or ?v_124 ?v_38) ?v_65)) (or (or ?v_13 ?v_106) P8)) (or (or ?v_11 ?v_67) ?v_140)) (or (or ?v_68 ?v_61) ?v_93)) (or (or ?v_109 ?v_120) ?v_100)) (or (or ?v_4 ?v_72) ?v_74)) (or (or ?v_103 ?v_123) ?v_141)) (or (or ?v_107 ?v_102) ?v_145)) (or (or ?v_123 ?v_98) ?v_114)) (or (or ?v_18 ?v_108) ?v_65)) (or (or ?v_146 P5) ?v_141)) (or (or ?v_53 ?v_127) ?v_81)) (or (or ?v_93 ?v_134) ?v_53)) (or (or ?v_74 ?v_29) P20)) (or (or P6 ?v_37) P8)) (or (or ?v_123 ?v_143) ?v_82)) (or (or ?v_112 ?v_11) ?v_4)) (or (or ?v_78 ?v_55) ?v_126)) (or (or ?v_10 ?v_121) ?v_77)) (or (or ?v_89 P5) ?v_16)) (or (or ?v_76 P17) ?v_87)) (or (or P9 ?v_53) ?v_38)) (or (or P5 ?v_96) ?v_37)) (or (or ?v_64 ?v_114) ?v_86)) (or (or ?v_107 ?v_7) ?v_113)) (or (or ?v_130 ?v_16) P3)) (or (or ?v_46 ?v_33) ?v_74)) (or (or ?v_58 ?v_48) ?v_60)) (or (or P12 ?v_14) ?v_78)) (or (or ?v_92 P28) ?v_56)) (or (or ?v_43 ?v_13) ?v_147)) (or (or ?v_57 ?v_138) ?v_26)) (or (or ?v_130 ?v_5) ?v_62)) (or (or ?v_146 ?v_43) P22)) (or (or ?v_56 ?v_121) P21)) (or (or ?v_145 ?v_41) P20)) (or (or ?v_66 P1) P7)) (or (or ?v_17 ?v_87) P15)) (or (or ?v_148 ?v_137) ?v_63)) (or (or ?v_48 P12) ?v_111)) (or (or ?v_43 ?v_145) ?v_14)) (or (or P24 P27) ?v_78)) (or (or ?v_116 ?v_85) ?v_86)) (or (or ?v_36 P29) ?v_67)) (or (or ?v_6 ?v_69) P13)) (or (or ?v_1 ?v_74) ?v_149)) (or (or P19 ?v_119) P23)) (or (or ?v_23 ?v_90) P21)) (or (or P17 ?v_109) ?v_18)) (or (or ?v_52 ?v_64) ?v_26)) (or (or ?v_31 ?v_129) ?v_22)) (or (or ?v_130 ?v_118) ?v_44)) (or (or P16 ?v_65) ?v_84)) (or (or P1 ?v_121) P11)) (or (or P20 ?v_101) ?v_150)) (or (or ?v_115 ?v_121) P8)) (or (or P23 ?v_79) ?v_137)) (or (or ?v_133 ?v_29) P25)) (or (or ?v_100 ?v_70) ?v_112)) (or (or ?v_88 ?v_146) ?v_2)) (or (or ?v_129 ?v_7) ?v_88)) (or (or ?v_102 ?v_25) ?v_2)) (or (or ?v_52 P10) P14)) (or (or ?v_27 ?v_16) ?v_125)) (or (or ?v_122 ?v_141) ?v_55)) (or (or ?v_65 ?v_98) ?v_84)) (or (or ?v_29 ?v_147) ?v_138)) (or (or ?v_79 P9) ?v_125)) (or (or ?v_139 ?v_141) ?v_90)) (or (or ?v_31 ?v_117) ?v_10)) (or (or ?v_45 P17) ?v_52)) (or (or ?v_105 ?v_30) ?v_60)) (or (or ?v_42 ?v_87) P17)) (or (or ?v_86 ?v_1) ?v_149)) (or (or ?v_80 ?v_105) ?v_141)) (or (or ?v_75 P25) ?v_28)) (or (or ?v_136 ?v_50) ?v_112)) (or (or P16 ?v_148) P14)) (or (or ?v_65 ?v_105) ?v_114)) (or (or ?v_52 ?v_73) ?v_13)) (or (or ?v_120 ?v_71) ?v_140)) (or (or ?v_62 ?v_48) ?v_138)) (or (or ?v_36 ?v_112) ?v_58)) (or (or ?v_13 ?v_23) ?v_82)) (or (or ?v_13 ?v_2) P29)) (or (or ?v_29 ?v_16) ?v_122)) (or (or ?v_25 ?v_74) ?v_75)) (or (or ?v_58 P21) ?v_74)) (or (or ?v_118 ?v_57) ?v_153)) (or (or ?v_133 ?v_126) ?v_21)) (or (or ?v_59 ?v_111) ?v_81)) (or (or ?v_90 ?v_85) ?v_73)) (or (or ?v_66 ?v_17) ?v_30)) (or (or ?v_46 P22) ?v_135)) (or (or ?v_123 ?v_62) P29)) (or (or P15 P20) ?v_98)) (or (or P19 ?v_145) ?v_109)) (or (or ?v_134 P12) ?v_151)) (or (or ?v_94 ?v_105) ?v_152)) (or (or ?v_35 P12) ?v_30)) (or (or ?v_101 ?v_71) P17)) (or (or ?v_136 ?v_120) ?v_18)) (or (or P23 ?v_104) P9)) (or (or ?v_78 ?v_46) ?v_76)) (or (or P26 ?v_50) ?v_111)) (or (or P11 P20) ?v_75)) (or (or ?v_2 P6) ?v_151)) (or (or ?v_59 P14) P29)) (or (or ?v_98 ?v_125) ?v_111)) (or (or ?v_70 P22) ?v_145)) (or (or ?v_89 ?v_122) ?v_35)) (or (or ?v_117 ?v_107) ?v_24)) (or (or P6 P15) P13)) (or (or ?v_6 ?v_11) ?v_8)) (or (or ?v_60 ?v_67) P7)) (or (or ?v_83 ?v_134) ?v_44)) (or (or ?v_74 ?v_130) ?v_37)) (or (or ?v_65 ?v_136) ?v_79)) (or (or ?v_112 ?v_34) ?v_150)) (or (or ?v_6 ?v_98) ?v_104)) (or (or P19 ?v_111) ?v_59)) (or (or ?v_103 ?v_111) ?v_105)) (or (or ?v_147 ?v_130) P27)) (or (or ?v_92 ?v_37) ?v_95)) (or (or ?v_38 ?v_68) ?v_23)) (or (or ?v_79 ?v_65) ?v_132)) (or (or ?v_137 ?v_62) ?v_119)) (or (or ?v_142 ?v_145) ?v_90)) (or (or ?v_153 ?v_29) ?v_150)) (or (or ?v_32 ?v_144) ?v_44)) (or (or ?v_110 ?v_122) ?v_107)) (or (or ?v_110 ?v_147) ?v_95)) (or (or ?v_118 P5) ?v_48)) (or (or ?v_134 ?v_41) P1)) (or (or ?v_17 ?v_136) ?v_153)) (or (or ?v_149 P11) ?v_144)) (or (or ?v_54 ?v_4) P23)) (or (or ?v_141 ?v_18) ?v_25)) (or (or ?v_52 ?v_141) ?v_99)) (or (or ?v_20 ?v_84) ?v_120)) (or (or ?v_96 ?v_51) ?v_143)) (or (or ?v_122 ?v_155) ?v_59)) (or (or ?v_24 P21) ?v_121)) (or (or ?v_139 ?v_12) ?v_134)) (or (or ?v_110 ?v_17) ?v_24)) (or (or ?v_118 ?v_77) ?v_51)) (or ?v_154 ?v_150)) (or (or P24 ?v_110) ?v_15)) (or (or ?v_132 ?v_84) P3)) (or (or ?v_142 ?v_90) ?v_12)) (or (or ?v_126 ?v_91) ?v_122)) (or (or ?v_2 ?v_153) ?v_67)) (or (or P7 ?v_11) ?v_67)) (or (or ?v_84 ?v_72) ?v_34)) (or (or ?v_138 ?v_87) ?v_105)) (or (or ?v_27 ?v_126) ?v_6)) (or (or ?v_108 ?v_27) ?v_41)) (or (or ?v_54 ?v_146) ?v_69)) (or (or ?v_63 ?v_70) P5)) (or (or ?v_78 ?v_4) P27)) (or (or ?v_38 ?v_139) ?v_65)) (or (or ?v_86 ?v_43) ?v_31)) (or (or P27 ?v_26) ?v_71)) (or (or ?v_139 ?v_121) ?v_94)) (or (or ?v_106 ?v_48) P16)) (or (or ?v_71 P17) ?v_72)) (or (or ?v_92 P25) ?v_80)) (or (or ?v_127 ?v_90) ?v_84)) (or (or P11 ?v_80) ?v_56)) (or (or ?v_116 ?v_74) ?v_37)) (or (or ?v_100 P13) ?v_84)) (or (or P23 ?v_71) ?v_45)) (or (or ?v_40 ?v_101) ?v_96)) (or (or ?v_75 P27) ?v_63)) (or (or P17 P6) ?v_139)) (or (or ?v_155 ?v_74) ?v_142)) (or (or P27 ?v_34) ?v_78)) (or ?v_156 ?v_4)) (or (or ?v_45 ?v_34) P7)) (or (or ?v_93 ?v_70) ?v_78)) (or (or ?v_139 ?v_4) ?v_70)) (or (or ?v_59 ?v_75) ?v_93)) (or (or ?v_149 ?v_6) ?v_85)) (or (or ?v_28 ?v_87) ?v_29)) (or (or ?v_90 ?v_56) P23)) (or (or ?v_113 ?v_64) ?v_121)) (or (or ?v_116 ?v_132) ?v_44)) (or (or ?v_82 P17) ?v_76)))))))))))))))))))
(check-sat)
(exit)
